experiment/data/lkh-res/Vrp-Set-B-n50/Vrp-Set-B-n50-lkh/1.lkh1.vrp
NAME : 1
COMMENT : CVRP Instance
TYPE : CVRP
DIMENSION : 50
EDGE_WEIGHT_TYPE : EUC_2D
CAPACITY : 100
NODE_COORD_SECTION
1	800	1200
2	6300	7700
3	1900	1000
4	3900	4900
5	8600	500
6	9600	6400
7	3400	2500
8	4400	1500
9	5800	9000
10	4900	2100
11	4300	5700
12	5200	2800
13	4700	2200
14	4000	5000
15	4400	3400
16	0	7000
17	5600	3000
18	6000	9800
19	10300	0
20	10500	7000
21	4500	2500
22	6400	8200
23	4400	5000
24	4400	5300
25	5900	2700
26	5400	1600
27	9200	1100
28	4600	2200
29	9800	7400
30	10300	7200
31	4400	2900
32	3900	3000
33	9700	7100
34	4900	2200
35	2200	1300
36	4400	5800
37	5000	2500
38	4600	2100
39	4400	5000
40	5100	6600
41	2800	1200
42	5000	5900
43	6100	9200
44	5200	2500
45	2100	1600
46	5100	6100
47	4600	5100
48	9100	1300
49	2500	1300
50	5300	2200
DEMAND_SECTION
1	0
2	14
3	3
4	5
5	9
6	69
7	13
8	25
9	17
10	12
11	12
12	10
13	2
14	23
15	15
16	16
17	26
18	12
19	12
20	26
21	10
22	22
23	4
24	16
25	8
26	23
27	2
28	24
29	12
30	24
31	4
32	19
33	21
34	7
35	15
36	14
37	18
38	7
39	20
40	18
41	2
42	21
43	21
44	3
45	5
46	20
47	16
48	25
49	3
50	10
DEPOT_SECTION
1
-1
EOF
