experiment/data/lkh-res/Vrp-Set-B-n50/Vrp-Set-B-n50-lkh/1.lkh1.tour
NAME : 1.131549.tour
COMMENT : Length = 131549
COMMENT : Found by LKH-3 [Keld Helsgaun] Tue Apr  9 00:57:09 2024
TYPE : TOUR
DIMENSION : 57
TOUR_SECTION
1
3
26
5
19
27
48
25
12
38
56
28
13
34
10
50
44
37
21
7
55
32
15
47
23
39
14
51
45
8
41
49
35
52
2
29
30
20
33
53
31
6
17
54
4
24
42
46
40
36
57
11
22
9
43
18
16
-1
EOF
